experiments/eusolverstring/3/TrainGenes/110001011001010110110101000011100110100111100000010100010100/172_.out
14 {f:ite(str.contains(func19(Param0)," "),ite(str.suffixof(int.to.str(func34(3)),Param0),func8(Param0,4,func34(5)),ite(=(4,func27(Param0," ")),func15(Param0,4,3),ite(str.suffixof(int.to.str(5),func19(Param0)),func15(Param0,4,3),ite(str.contains(Param0,int.to.str(0)),func15(Param0,4,4),ite(str.suffixof(int.to.str(4),Param0),func15(Param0,4,4),ite(str.suffixof(int.to.str(func34(2)),Param0),func15(Param0,4,4),func15(Param0,4,3))))))),ite(str.contains(Param0,int.to.str(2)),ite(str.contains(Param0,int.to.str(0)),func15(Param0,4,func34(2)),ite(str.contains(Param0,int.to.str(4)),func15(Param0,4,func34(2)),ite(str.suffixof(int.to.str(func34(3)),Param0),func15(Param0,4,func34(2)),func8(Param0,4,func34(5))))),func8(Param0,4,func34(5))))}
0.0008260000
0.0000000000
5.0094030000
